TOUR_SECTION
1
70
173
63
119
93
83
33
172
149
58
120
18
55
29
128
76
95
24
200
101
194
23
187
193
54
43
84
87
12
195
103
100
102
112
105
118
136
47
57
107
168
154
199
82
97
8
145
7
189
89
171
125
27
35
60
127
131
115
19
99
181
197
108
196
126
176
183
152
81
80
201
160
66
2
157
72
34
137
185
111
65
135
129
26
163
4
98
13
45
190
59
188
11
85
5
166
91
69
17
151
159
61
15
144
142
178
20
148
192
184
31
146
53
156
180
62
122
39
117
30
114
141
71
104
164
162
186
150
6
86
140
198
40
68
73
49
88
79
174
3
116
132
139
165
167
124
22
75
38
143
96
51
110
50
175
109
130
179
9
161
169
155
121
16
191
44
78
21
92
25
138
74
41
77
32
52
147
133
46
123
14
153
42
64
36
113
134
28
106
94
177
56
37
48
67
10
182
90
158
170
-1
EOF